NAME: line_45_88
TYPE: TSP
COMMENT: srandom_45_88
DIMENSION: 45
EDGE_WEIGHT_TYPE: EUC_2D
NODE_COORD_SECTION
1 2102 2329
2 3362 662
3 222 628
4 1808 4503
5 368 3617
6 3004 3356
7 971 546
8 39 1715
9 692 3688
10 2717 3778
11 1202 3143
12 993 3357
13 1624 3830
14 2705 152
15 4991 3477
16 17 3267
17 3893 792
18 1116 874
19 3716 57
20 1619 4993
21 4607 1618
22 2362 1808
23 4633 4234
24 1810 2398
25 2236 2119
26 25 1762
27 2321 3075
28 2257 4575
29 1397 390
30 1553 1098
31 752 1296
32 158 312
33 1774 3050
34 4957 2677
35 1138 1114
36 4886 1582
37 213 177
38 3601 4492
39 3782 1155
40 4959 635
41 3917 3469
42 3530 4979
43 4654 3916
44 837 3082
45 616 3484
